p cnf 421 644
16 25 35 101 102 0
16 25 35 101 -102 0
16 25 35 -101 102 0
16 25 35 -101 -102 0
16 25 -35 103 104 0
16 25 -35 103 -104 0
16 25 -35 -103 104 0
16 25 -35 -103 -104 0
-16 25 -48 105 106 0
-16 25 -48 105 -106 0
-16 25 -48 -105 106 0
-16 25 -48 -105 -106 0
-25 -48 86 107 108 0
-25 -48 86 107 -108 0
-25 -48 86 -107 108 0
-25 -48 86 -107 -108 0
-25 -48 -86 109 110 0
-25 -48 -86 109 -110 0
-25 -48 -86 -109 110 0
-25 -48 -86 -109 -110 0
32 48 53 111 112 0
32 48 53 111 -112 0
32 48 53 -111 112 0
32 48 53 -111 -112 0
32 48 -53 113 114 0
32 48 -53 113 -114 0
32 48 -53 -113 114 0
32 48 -53 -113 -114 0
-32 48 -70 115 116 0
-32 48 -70 115 -116 0
-32 48 -70 -115 116 0
-32 48 -70 -115 -116 0
-32 -49 70 117 118 0
-32 -49 70 117 -118 0
-32 -49 70 -117 118 0
-32 -49 70 -117 -118 0
49 69 74 119 120 0
49 69 74 119 -120 0
49 69 74 -119 120 0
49 69 74 -119 -120 0
69 70 -74 121 122 0
69 70 -74 121 -122 0
69 70 -74 -121 122 0
69 70 -74 -121 -122 0
49 -69 -94 123 124 0
49 -69 -94 123 -124 0
49 -69 -94 -123 124 0
49 -69 -94 -123 -124 0
24 -69 94 125 126 0
24 -69 94 125 -126 0
24 -69 94 -125 126 0
24 -69 94 -125 -126 0
-24 83 94 127 128 0
-24 83 94 127 -128 0
-24 83 94 -127 128 0
-24 83 94 -127 -128 0
-20 -24 -83 129 130 0
-20 -24 -83 129 -130 0
-20 -24 -83 -129 130 0
-20 -24 -83 -129 -130 0
-24 81 -83 131 132 0
-24 81 -83 131 -132 0
-24 81 -83 -131 132 0
-24 81 -83 -131 -132 0
-66 -81 -83 133 134 0
-66 -81 -83 133 -134 0
-66 -81 -83 -133 134 0
-66 -81 -83 -133 -134 0
3 66 -81 135 136 0
3 66 -81 135 -136 0
3 66 -81 -135 136 0
3 66 -81 -135 -136 0
-3 -41 66 137 138 0
-3 -41 66 137 -138 0
-3 -41 66 -137 138 0
-3 -41 66 -137 -138 0
-3 -56 80 139 140 0
-3 -56 80 139 -140 0
-3 -56 80 -139 140 0
-3 -56 80 -139 -140 0
41 -56 -80 141 142 0
41 -56 -80 141 -142 0
41 -56 -80 -141 142 0
41 -56 -80 -141 -142 0
41 56 73 143 144 0
41 56 73 143 -144 0
41 56 73 -143 144 0
41 56 73 -143 -144 0
56 -73 -97 145 146 0
56 -73 -97 145 -146 0
56 -73 -97 -145 146 0
56 -73 -97 -145 -146 0
45 56 -73 147 148 0
45 56 -73 147 -148 0
45 56 -73 -147 148 0
45 56 -73 -147 -148 0
-45 -60 -73 149 150 0
-45 -60 -73 149 -150 0
-45 -60 -73 -149 150 0
-45 -60 -73 -149 -150 0
12 -45 -73 151 152 0
12 -45 -73 151 -152 0
12 -45 -73 -151 152 0
12 -45 -73 -151 -152 0
-12 60 -75 153 154 0
-12 60 -75 153 -154 0
-12 60 -75 -153 154 0
-12 60 -75 -153 -154 0
-12 75 95 155 156 0
-12 75 95 155 -156 0
-12 75 95 -155 156 0
-12 75 95 -155 -156 0
58 75 -95 157 158 0
58 75 -95 157 -158 0
58 75 -95 -157 158 0
58 75 -95 -157 -158 0
15 -58 -95 159 160 0
15 -58 -95 159 -160 0
15 -58 -95 -159 160 0
15 -58 -95 -159 -160 0
5 -15 -58 161 162 0
5 -15 -58 161 -162 0
5 -15 -58 -161 162 0
5 -15 -58 -161 -162 0
-5 11 -58 163 164 0
-5 11 -58 163 -164 0
-5 11 -58 -163 164 0
-5 11 -58 -163 -164 0
-5 -11 -76 165 166 0
-5 -11 -76 165 -166 0
-5 -11 -76 -165 166 0
-5 -11 -76 -165 -166 0
-11 -29 76 167 168 0
-11 -29 76 167 -168 0
-11 -29 76 -167 168 0
-11 -29 76 -167 -168 0
65 76 -99 169 170 0
65 76 -99 169 -170 0
65 76 -99 -169 170 0
65 76 -99 -169 -170 0
29 76 -99 171 172 0
29 76 -99 171 -172 0
29 76 -99 -171 172 0
29 76 -99 -171 -172 0
29 43 99 173 174 0
29 43 99 173 -174 0
29 43 99 -173 174 0
29 43 99 -173 -174 0
-43 93 99 175 176 0
-43 93 99 175 -176 0
-43 93 99 -175 176 0
-43 93 99 -175 -176 0
23 -43 -93 177 178 0
23 -43 -93 177 -178 0
23 -43 -93 -177 178 0
23 -43 -93 -177 -178 0
-23 -86 -93 179 180 0
-23 -86 -93 179 -180 0
-23 -86 -93 -179 180 0
-23 -86 -93 -179 -180 0
-23 -93 -98 181 182 0
-23 -93 -98 181 -182 0
-23 -93 -98 -181 182 0
-23 -93 -98 -181 -182 0
-67 -93 98 183 184 0
-67 -93 98 183 -184 0
-67 -93 98 -183 184 0
-67 -93 98 -183 -184 0
8 67 98 185 186 0
8 67 98 185 -186 0
8 67 98 -185 186 0
8 67 98 -185 -186 0
-8 -28 98 187 188 0
-8 -28 98 187 -188 0
-8 -28 98 -187 188 0
-8 -28 98 -187 -188 0
-8 -16 98 189 190 0
-8 -16 98 189 -190 0
-8 -16 98 -189 190 0
-8 -16 98 -189 -190 0
-8 28 -55 191 192 0
-8 28 -55 191 -192 0
-8 28 -55 -191 192 0
-8 28 -55 -191 -192 0
28 55 100 193 194 0
28 55 100 193 -194 0
28 55 100 -193 194 0
28 55 100 -193 -194 0
1 55 -100 195 196 0
1 55 -100 195 -196 0
1 55 -100 -195 196 0
1 55 -100 -195 -196 0
-1 -21 -100 197 198 0
-1 -21 -100 197 -198 0
-1 -21 -100 -197 198 0
-1 -21 -100 -197 -198 0
-1 21 -46 199 200 0
-1 21 -46 199 -200 0
-1 21 -46 -199 200 0
-1 21 -46 -199 -200 0
21 46 -85 201 202 0
21 46 -85 201 -202 0
21 46 -85 -201 202 0
21 46 -85 -201 -202 0
21 71 85 203 204 0
21 71 85 203 -204 0
21 71 85 -203 204 0
21 71 85 -203 -204 0
21 -22 -71 205 206 0
21 -22 -71 205 -206 0
21 -22 -71 -205 206 0
21 -22 -71 -205 -206 0
22 40 -71 207 208 0
22 40 -71 207 -208 0
22 40 -71 -207 208 0
22 40 -71 -207 -208 0
46 51 67 209 210 0
46 51 67 209 -210 0
46 51 67 -209 210 0
46 51 67 -209 -210 0
22 -46 51 211 212 0
22 -46 51 211 -212 0
22 -46 51 -211 212 0
22 -46 51 -211 -212 0
-40 51 60 213 214 0
-40 51 60 213 -214 0
-40 51 60 -213 214 0
-40 51 60 -213 -214 0
51 -60 -67 215 216 0
51 -60 -67 215 -216 0
51 -60 -67 -215 216 0
51 -60 -67 -215 -216 0
-4 -40 -51 217 218 0
-4 -40 -51 217 -218 0
-4 -40 -51 -217 218 0
-4 -40 -51 -217 -218 0
4 -51 82 219 220 0
4 -51 82 219 -220 0
4 -51 82 -219 220 0
4 -51 82 -219 -220 0
4 26 -82 221 222 0
4 26 -82 221 -222 0
4 26 -82 -221 222 0
4 26 -82 -221 -222 0
-26 28 -62 223 224 0
-26 28 -62 223 -224 0
-26 28 -62 -223 224 0
-26 28 -62 -223 -224 0
-28 -62 -82 225 226 0
-28 -62 -82 225 -226 0
-28 -62 -82 -225 226 0
-28 -62 -82 -225 -226 0
-26 -52 62 227 228 0
-26 -52 62 227 -228 0
-26 -52 62 -227 228 0
-26 -52 62 -227 -228 0
52 57 62 229 230 0
52 57 62 229 -230 0
52 57 62 -229 230 0
52 57 62 -229 -230 0
-57 62 -64 231 232 0
-57 62 -64 231 -232 0
-57 62 -64 -231 232 0
-57 62 -64 -231 -232 0
-37 -57 64 233 234 0
-37 -57 64 233 -234 0
-37 -57 64 -233 234 0
-37 -57 64 -233 -234 0
19 64 -77 235 236 0
19 64 -77 235 -236 0
19 64 -77 -235 236 0
19 64 -77 -235 -236 0
-19 37 -77 237 238 0
-19 37 -77 237 -238 0
-19 37 -77 -237 238 0
-19 37 -77 -237 -238 0
13 37 77 239 240 0
13 37 77 239 -240 0
13 37 77 -239 240 0
13 37 77 -239 -240 0
-13 -44 77 241 242 0
-13 -44 77 241 -242 0
-13 -44 77 -241 242 0
-13 -44 77 -241 -242 0
-13 44 89 243 244 0
-13 44 89 243 -244 0
-13 44 89 -243 244 0
-13 44 89 -243 -244 0
-34 44 -89 245 246 0
-34 44 -89 245 -246 0
-34 44 -89 -245 246 0
-34 44 -89 -245 -246 0
34 68 -89 247 248 0
34 68 -89 247 -248 0
34 68 -89 -247 248 0
34 68 -89 -247 -248 0
-9 34 -68 249 250 0
-9 34 -68 249 -250 0
-9 34 -68 -249 250 0
-9 34 -68 -249 -250 0
50 -91 97 251 252 0
50 -91 97 251 -252 0
50 -91 97 -251 252 0
50 -91 97 -251 -252 0
9 50 -97 253 254 0
9 50 -97 253 -254 0
9 50 -97 -253 254 0
9 50 -97 -253 -254 0
9 -68 -91 255 256 0
9 -68 -91 255 -256 0
9 -68 -91 -255 256 0
9 -68 -91 -255 -256 0
36 86 91 257 258 0
36 86 91 257 -258 0
36 86 91 -257 258 0
36 86 91 -257 -258 0
36 -68 91 259 260 0
36 -68 91 259 -260 0
36 -68 91 -259 260 0
36 -68 91 -259 -260 0
6 -36 91 261 262 0
6 -36 91 261 -262 0
6 -36 91 -261 262 0
6 -36 91 -261 -262 0
6 -36 -49 263 264 0
6 -36 -49 263 -264 0
6 -36 -49 -263 264 0
6 -36 -49 -263 -264 0
-6 -36 90 265 266 0
-6 -36 90 265 -266 0
-6 -36 90 -265 266 0
-6 -36 90 -265 -266 0
-6 65 -90 267 268 0
-6 65 -90 267 -268 0
-6 65 -90 -267 268 0
-6 65 -90 -267 -268 0
-31 -65 -90 269 270 0
-31 -65 -90 269 -270 0
-31 -65 -90 -269 270 0
-31 -65 -90 -269 -270 0
31 -65 -87 271 272 0
31 -65 -87 271 -272 0
31 -65 -87 -271 272 0
31 -65 -87 -271 -272 0
25 -65 87 273 274 0
25 -65 87 273 -274 0
25 -65 87 -273 274 0
25 -65 87 -273 -274 0
14 31 87 275 276 0
14 31 87 275 -276 0
14 31 87 -275 276 0
14 31 87 -275 -276 0
-14 18 -25 277 278 0
-14 18 -25 277 -278 0
-14 18 -25 -277 278 0
-14 18 -25 -277 -278 0
-14 -18 -72 279 280 0
-14 -18 -72 279 -280 0
-14 -18 -72 -279 280 0
-14 -18 -72 -279 -280 0
-14 -18 -30 281 282 0
-14 -18 -30 281 -282 0
-14 -18 -30 -281 282 0
-14 -18 -30 -281 -282 0
-14 72 84 283 284 0
-14 72 84 283 -284 0
-14 72 84 -283 284 0
-14 72 84 -283 -284 0
-33 72 84 285 286 0
-33 72 84 285 -286 0
-33 72 84 -285 286 0
-33 72 84 -285 -286 0
-27 30 75 287 288 0
-27 30 75 287 -288 0
-27 30 75 -287 288 0
-27 30 75 -287 -288 0
30 -75 -84 289 290 0
30 -75 -84 289 -290 0
30 -75 -84 -289 290 0
30 -75 -84 -289 -290 0
27 78 -84 291 292 0
27 78 -84 291 -292 0
27 78 -84 -291 292 0
27 78 -84 -291 -292 0
59 -78 -80 293 294 0
59 -78 -80 293 -294 0
59 -78 -80 -293 294 0
59 -78 -80 -293 -294 0
-59 -80 -84 295 296 0
-59 -80 -84 295 -296 0
-59 -80 -84 -295 296 0
-59 -80 -84 -295 -296 0
24 79 80 297 298 0
24 79 80 297 -298 0
24 79 80 -297 298 0
24 79 80 -297 -298 0
-78 79 80 299 300 0
-78 79 80 299 -300 0
-78 79 80 -299 300 0
-78 79 80 -299 -300 0
38 -78 -79 301 302 0
38 -78 -79 301 -302 0
38 -78 -79 -301 302 0
38 -78 -79 -301 -302 0
-38 -79 88 303 304 0
-38 -79 88 303 -304 0
-38 -79 88 -303 304 0
-38 -79 88 -303 -304 0
19 -38 -88 305 306 0
19 -38 -88 305 -306 0
19 -38 -88 -305 306 0
19 -38 -88 -305 -306 0
-38 -88 -96 307 308 0
-38 -88 -96 307 -308 0
-38 -88 -96 -307 308 0
-38 -88 -96 -307 -308 0
-19 42 96 309 310 0
-19 42 96 309 -310 0
-19 42 96 -309 310 0
-19 42 96 -309 -310 0
-39 -42 94 311 312 0
-39 -42 94 311 -312 0
-39 -42 94 -311 312 0
-39 -42 94 -311 -312 0
-39 -94 96 313 314 0
-39 -94 96 313 -314 0
-39 -94 96 -313 314 0
-39 -94 96 -313 -314 0
-17 20 -42 315 316 0
-17 20 -42 315 -316 0
-17 20 -42 -315 316 0
-17 20 -42 -315 -316 0
-17 -20 39 317 318 0
-17 -20 39 317 -318 0
-17 -20 39 -317 318 0
-17 -20 39 -317 -318 0
-10 17 38 319 320 0
-10 17 38 319 -320 0
-10 17 38 -319 320 0
-10 17 38 -319 -320 0
-10 17 39 321 322 0
-10 17 39 321 -322 0
-10 17 39 -321 322 0
-10 17 39 -321 -322 0
10 17 74 323 324 0
10 17 74 323 -324 0
10 17 74 -323 324 0
10 17 74 -323 -324 0
-7 10 -74 325 326 0
-7 10 -74 325 -326 0
-7 10 -74 -325 326 0
-7 10 -74 -325 -326 0
7 12 41 327 328 0
7 12 41 327 -328 0
7 12 41 -327 328 0
7 12 41 -327 -328 0
7 41 -92 329 330 0
7 41 -92 329 -330 0
7 41 -92 -329 330 0
7 41 -92 -329 -330 0
7 -41 -92 331 332 0
7 -41 -92 331 -332 0
7 -41 -92 -331 332 0
7 -41 -92 -331 -332 0
-33 -74 92 333 334 0
-33 -74 92 333 -334 0
-33 -74 92 -333 334 0
-33 -74 92 -333 -334 0
-2 33 54 335 336 0
-2 33 54 335 -336 0
-2 33 54 -335 336 0
-2 33 54 -335 -336 0
-2 -54 92 337 338 0
-2 -54 92 337 -338 0
-2 -54 92 -337 338 0
-2 -54 92 -337 -338 0
2 33 50 339 340 0
2 33 50 339 -340 0
2 33 50 -339 340 0
2 33 50 -339 -340 0
2 -50 -63 341 342 0
2 -50 -63 341 -342 0
2 -50 -63 -341 342 0
2 -50 -63 -341 -342 0
27 47 63 343 344 0
27 47 63 343 -344 0
27 47 63 -343 344 0
27 47 63 -343 -344 0
-50 -61 63 345 346 0
-50 -61 63 345 -346 0
-50 -61 63 -345 346 0
-50 -61 63 -345 -346 0
-27 -61 63 347 348 0
-27 -61 63 347 -348 0
-27 -61 63 -347 348 0
-27 -61 63 -347 -348 0
-50 -53 61 349 350 0
-50 -53 61 349 -350 0
-50 -53 61 -349 350 0
-50 -53 61 -349 -350 0
53 54 61 351 352 0
53 54 61 351 -352 0
53 54 61 -351 352 0
53 54 61 -351 -352 0
47 53 -54 353 354 0
47 53 -54 353 -354 0
47 53 -54 -353 354 0
47 53 -54 -353 -354 0
35 -47 -54 355 356 0
35 -47 -54 355 -356 0
35 -47 -54 -355 356 0
35 -47 -54 -355 -356 0
-35 -47 59 357 358 0
-35 -47 59 357 -358 0
-35 -47 59 -357 358 0
-35 -47 59 -357 -358 0
52 78 95 359 360 0
52 78 95 359 -360 0
52 78 95 -359 360 0
52 78 95 -359 -360 0
23 26 89 361 362 0
23 26 89 361 -362 0
23 26 89 -361 362 0
23 26 89 -361 -362 0
-29 45 -98 363 364 0
-29 45 -98 363 -364 0
-29 45 -98 -363 364 0
-29 45 -98 -363 -364 0
-31 -66 -76 365 366 0
-31 -66 -76 365 -366 0
-31 -66 -76 -365 366 0
-31 -66 -76 -365 -366 0
-21 -30 -55 367 368 0
-21 -30 -55 367 -368 0
-21 -30 -55 -367 368 0
-21 -30 -55 -367 -368 0
-22 -52 -85 369 370 0
-22 -52 -85 369 -370 0
-22 -52 -85 -369 370 0
-22 -52 -85 -369 -370 0
20 -34 100 371 372 0
20 -34 100 371 -372 0
20 -34 100 -371 372 0
20 -34 100 -371 -372 0
45 -63 90 373 374 0
45 -63 90 373 -374 0
45 -63 90 -373 374 0
45 -63 90 -373 -374 0
-16 -52 -72 375 376 0
-16 -52 -72 375 -376 0
-16 -52 -72 -375 376 0
-16 -52 -72 -375 -376 0
3 -33 -44 377 378 0
3 -33 -44 377 -378 0
3 -33 -44 -377 378 0
3 -33 -44 -377 -378 0
-9 15 26 379 380 0
-9 15 26 379 -380 0
-9 15 26 -379 380 0
-9 15 26 -379 -380 0
13 -70 85 381 382 0
13 -70 85 381 -382 0
13 -70 85 -381 382 0
13 -70 85 -381 -382 0
-37 -63 -75 383 384 0
-37 -63 -75 383 -384 0
-37 -63 -75 -383 384 0
-37 -63 -75 -383 -384 0
31 40 54 385 386 0
31 40 54 385 -386 0
31 40 54 -385 386 0
31 40 54 -385 -386 0
-87 88 -96 387 388 0
-87 88 -96 387 -388 0
-87 88 -96 -387 388 0
-87 88 -96 -387 -388 0
-15 -59 82 389 390 0
-15 -59 82 389 -390 0
-15 -59 82 -389 390 0
-15 -59 82 -389 -390 0
3 23 93 391 392 0
3 23 93 391 -392 0
3 23 93 -391 392 0
3 23 93 -391 -392 0
19 -31 -39 393 394 0
19 -31 -39 393 -394 0
19 -31 -39 -393 394 0
19 -31 -39 -393 -394 0
-34 58 68 395 396 0
-34 58 68 395 -396 0
-34 58 68 -395 396 0
-34 58 68 -395 -396 0
1 15 -34 397 398 0
1 15 -34 397 -398 0
1 15 -34 -397 398 0
1 15 -34 -397 -398 0
14 43 71 399 400 0
14 43 71 399 -400 0
14 43 71 -399 400 0
14 43 71 -399 -400 0
8 30 57 401 402 0
8 30 57 401 -402 0
8 30 57 -401 402 0
8 30 57 -401 -402 0
-4 18 73 403 404 0
-4 18 73 403 -404 0
-4 18 73 -403 404 0
-4 18 73 -403 -404 0
5 18 88 405 406 0
5 18 88 405 -406 0
5 18 88 -405 406 0
5 18 88 -405 -406 0
-7 11 83 407 408 0
-7 11 83 407 -408 0
-7 11 83 -407 408 0
-7 11 83 -407 -408 0
-64 68 81 409 410 0
-64 68 81 409 -410 0
-64 68 81 -409 410 0
-64 68 81 -409 -410 0
30 35 -37 411 412 0
30 35 -37 411 -412 0
30 35 -37 -411 412 0
30 35 -37 -411 -412 0
-9 12 97 413 414 0
-9 12 97 413 -414 0
-9 12 97 -413 414 0
-9 12 97 -413 -414 0
-4 42 93 415 416 0
-4 42 93 415 -416 0
-4 42 93 -415 416 0
-4 42 93 -415 -416 0
-7 -21 417 418 419 0
-7 -21 417 418 -419 0
-7 -21 417 -418 419 0
-7 -21 417 -418 -419 0
-7 -21 -417 418 419 0
-7 -21 -417 418 -419 0
-7 -21 -417 -418 419 0
-7 -21 -417 -418 -419 0
-7 -10 81 420 421 0
-7 -10 81 420 -421 0
-7 -10 81 -420 421 0
-7 -10 81 -420 -421 0
